benchmarks_CP/INST_64x64/40/inst64x64_40_6.dzn
S=8;
start=[|
37,	-1,	-1,	50,	-1,	54,	2,	4,	-1,	44,	-1,	-1,	-1,	-1,	-1,	-1,	-1,	-1,	-1,	62,	49,	-1,	-1,	18,	-1,	20,	5,	28,	63,	-1,	23,	-1,	-1,	24,	-1,	-1,	-1,	32,	60,	-1,	-1,	-1,	-1,	29,	59,	-1,	-1,	-1,	42,	-1,	7,	55,	-1,	-1,	-1,	-1,	39,	-1,	-1,	64,	-1,	-1,	-1,	-1|
-1,	-1,	32,	47,	23,	46,	56,	3,	64,	-1,	-1,	39,	-1,	54,	52,	17,	11,	-1,	63,	33,	-1,	-1,	19,	-1,	-1,	24,	22,	45,	16,	-1,	-1,	-1,	-1,	-1,	-1,	-1,	5,	-1,	51,	-1,	-1,	-1,	-1,	-1,	6,	-1,	4,	-1,	-1,	10,	-1,	-1,	-1,	-1,	-1,	21,	-1,	-1,	-1,	12,	-1,	20,	-1,	60|
-1,	-1,	-1,	64,	27,	-1,	-1,	35,	59,	14,	24,	-1,	36,	58,	-1,	30,	-1,	-1,	50,	47,	60,	25,	5,	10,	43,	-1,	-1,	-1,	-1,	-1,	-1,	-1,	-1,	-1,	29,	-1,	-1,	41,	-1,	19,	-1,	-1,	-1,	-1,	18,	63,	-1,	42,	15,	-1,	-1,	-1,	-1,	-1,	-1,	16,	31,	-1,	3,	28,	-1,	-1,	-1,	-1|
-1,	-1,	-1,	-1,	-1,	-1,	20,	-1,	-1,	45,	-1,	-1,	-1,	23,	42,	-1,	-1,	55,	-1,	-1,	-1,	-1,	29,	-1,	-1,	44,	27,	-1,	-1,	-1,	-1,	-1,	43,	-1,	-1,	-1,	-1,	-1,	-1,	10,	-1,	33,	-1,	-1,	50,	-1,	-1,	5,	-1,	63,	-1,	-1,	-1,	-1,	6,	30,	48,	-1,	-1,	9,	-1,	13,	-1,	-1|
-1,	-1,	-1,	-1,	-1,	15,	55,	36,	1,	25,	-1,	-1,	38,	-1,	-1,	-1,	-1,	-1,	-1,	-1,	46,	-1,	-1,	54,	32,	64,	57,	53,	-1,	-1,	-1,	59,	62,	-1,	8,	-1,	-1,	-1,	-1,	-1,	-1,	-1,	22,	-1,	13,	-1,	35,	-1,	18,	23,	-1,	-1,	47,	27,	-1,	-1,	10,	-1,	49,	42,	-1,	43,	30,	-1|
63,	-1,	25,	52,	-1,	-1,	-1,	-1,	-1,	-1,	-1,	18,	-1,	-1,	-1,	-1,	-1,	-1,	-1,	-1,	48,	-1,	30,	-1,	9,	49,	21,	50,	-1,	-1,	3,	-1,	-1,	27,	-1,	-1,	-1,	-1,	47,	16,	-1,	-1,	-1,	-1,	-1,	-1,	-1,	-1,	53,	-1,	24,	-1,	-1,	-1,	31,	-1,	5,	-1,	-1,	-1,	-1,	-1,	6,	37|
18,	24,	49,	-1,	5,	-1,	-1,	-1,	41,	4,	-1,	63,	48,	33,	-1,	-1,	-1,	-1,	-1,	-1,	-1,	-1,	-1,	-1,	26,	1,	7,	-1,	-1,	19,	-1,	-1,	-1,	-1,	12,	20,	42,	-1,	-1,	58,	-1,	54,	-1,	55,	64,	-1,	44,	-1,	-1,	59,	-1,	28,	-1,	-1,	11,	8,	-1,	-1,	21,	-1,	16,	-1,	-1,	14|
30,	9,	-1,	57,	28,	59,	-1,	45,	10,	-1,	-1,	-1,	55,	35,	-1,	43,	-1,	51,	-1,	-1,	1,	-1,	41,	-1,	-1,	33,	-1,	-1,	-1,	58,	38,	-1,	-1,	4,	-1,	53,	22,	56,	-1,	49,	47,	31,	-1,	-1,	-1,	-1,	-1,	-1,	-1,	29,	13,	5,	36,	2,	-1,	50,	17,	-1,	-1,	-1,	-1,	-1,	61,	-1|
58,	-1,	-1,	56,	-1,	25,	-1,	41,	-1,	-1,	-1,	7,	59,	30,	-1,	39,	-1,	10,	-1,	-1,	-1,	51,	9,	-1,	-1,	16,	-1,	33,	29,	-1,	-1,	-1,	-1,	-1,	-1,	27,	4,	-1,	-1,	-1,	-1,	40,	-1,	-1,	-1,	-1,	-1,	-1,	-1,	3,	-1,	-1,	-1,	-1,	-1,	-1,	45,	-1,	-1,	35,	38,	22,	8,	63|
-1,	6,	-1,	-1,	-1,	37,	-1,	-1,	-1,	2,	44,	34,	-1,	-1,	25,	-1,	16,	-1,	12,	-1,	19,	-1,	-1,	46,	-1,	14,	-1,	59,	-1,	24,	-1,	4,	47,	-1,	-1,	50,	-1,	45,	30,	-1,	-1,	-1,	7,	3,	55,	26,	-1,	-1,	-1,	58,	-1,	-1,	61,	13,	-1,	-1,	1,	51,	11,	-1,	56,	64,	-1,	-1|
-1,	33,	24,	-1,	-1,	63,	44,	-1,	-1,	21,	-1,	-1,	-1,	-1,	-1,	50,	-1,	-1,	-1,	31,	-1,	57,	6,	-1,	-1,	-1,	35,	-1,	-1,	37,	64,	-1,	-1,	-1,	38,	-1,	43,	-1,	-1,	-1,	60,	10,	-1,	-1,	-1,	56,	-1,	-1,	-1,	-1,	14,	-1,	23,	-1,	-1,	-1,	-1,	-1,	18,	-1,	-1,	9,	-1,	-1|
-1,	-1,	-1,	43,	16,	-1,	-1,	32,	12,	22,	9,	-1,	-1,	63,	-1,	-1,	-1,	-1,	-1,	-1,	2,	-1,	33,	-1,	58,	-1,	-1,	-1,	19,	45,	-1,	-1,	-1,	-1,	-1,	28,	11,	44,	-1,	-1,	-1,	51,	8,	49,	47,	-1,	-1,	-1,	-1,	-1,	29,	31,	-1,	56,	-1,	18,	-1,	-1,	27,	-1,	-1,	-1,	-1,	4|
9,	-1,	-1,	-1,	-1,	-1,	40,	-1,	38,	-1,	-1,	-1,	18,	52,	-1,	-1,	-1,	62,	13,	-1,	25,	-1,	-1,	56,	-1,	7,	61,	-1,	-1,	-1,	-1,	-1,	-1,	59,	-1,	-1,	-1,	39,	-1,	-1,	-1,	16,	33,	30,	-1,	1,	34,	-1,	45,	-1,	27,	-1,	-1,	26,	-1,	-1,	-1,	-1,	48,	-1,	-1,	-1,	58,	-1|
-1,	38,	-1,	-1,	-1,	-1,	64,	-1,	-1,	-1,	-1,	-1,	-1,	-1,	19,	14,	32,	21,	7,	23,	-1,	17,	-1,	-1,	-1,	8,	-1,	-1,	-1,	-1,	-1,	-1,	-1,	-1,	-1,	-1,	-1,	-1,	-1,	-1,	-1,	50,	31,	-1,	-1,	-1,	6,	2,	-1,	-1,	-1,	-1,	48,	9,	-1,	41,	-1,	54,	52,	39,	-1,	-1,	24,	-1|
10,	17,	19,	-1,	-1,	8,	-1,	-1,	-1,	-1,	4,	-1,	-1,	-1,	16,	-1,	-1,	39,	42,	-1,	-1,	-1,	43,	44,	-1,	-1,	-1,	47,	-1,	-1,	-1,	40,	-1,	-1,	-1,	-1,	-1,	-1,	-1,	-1,	45,	-1,	41,	46,	58,	-1,	11,	20,	12,	-1,	-1,	38,	28,	-1,	-1,	51,	30,	3,	6,	-1,	60,	49,	55,	33|
36,	-1,	-1,	-1,	-1,	-1,	15,	-1,	60,	27,	-1,	-1,	23,	8,	-1,	58,	-1,	20,	-1,	-1,	-1,	-1,	-1,	-1,	11,	21,	44,	-1,	-1,	38,	-1,	43,	-1,	-1,	-1,	-1,	14,	-1,	-1,	61,	52,	-1,	35,	62,	-1,	-1,	54,	-1,	-1,	-1,	-1,	-1,	63,	-1,	30,	-1,	-1,	-1,	10,	25,	-1,	-1,	5,	26|
-1,	-1,	1,	-1,	21,	-1,	42,	-1,	7,	39,	-1,	37,	-1,	38,	-1,	18,	-1,	-1,	-1,	-1,	20,	-1,	58,	-1,	-1,	23,	-1,	-1,	28,	63,	54,	-1,	-1,	52,	5,	29,	30,	-1,	56,	31,	-1,	11,	55,	35,	-1,	-1,	-1,	-1,	-1,	-1,	-1,	-1,	9,	10,	-1,	14,	64,	-1,	-1,	16,	-1,	57,	43,	36|
61,	-1,	-1,	60,	2,	-1,	3,	-1,	-1,	-1,	-1,	-1,	14,	-1,	-1,	48,	-1,	52,	-1,	17,	-1,	15,	12,	-1,	-1,	31,	-1,	-1,	42,	55,	16,	-1,	4,	-1,	-1,	25,	18,	9,	-1,	41,	46,	-1,	-1,	-1,	-1,	51,	58,	-1,	-1,	-1,	20,	-1,	32,	-1,	-1,	-1,	-1,	38,	30,	33,	8,	-1,	-1,	-1|
-1,	-1,	-1,	-1,	-1,	-1,	-1,	-1,	54,	-1,	-1,	10,	-1,	40,	-1,	20,	-1,	-1,	-1,	3,	31,	60,	-1,	50,	-1,	-1,	-1,	4,	64,	-1,	29,	-1,	32,	8,	22,	1,	-1,	-1,	43,	-1,	30,	-1,	-1,	-1,	-1,	-1,	-1,	52,	56,	27,	-1,	12,	-1,	-1,	-1,	-1,	13,	-1,	-1,	-1,	9,	-1,	-1,	-1|
-1,	-1,	30,	20,	6,	49,	-1,	18,	-1,	-1,	-1,	-1,	-1,	-1,	23,	-1,	-1,	26,	-1,	-1,	-1,	7,	-1,	1,	24,	40,	-1,	-1,	-1,	13,	5,	-1,	2,	-1,	-1,	-1,	-1,	-1,	-1,	3,	-1,	-1,	-1,	42,	-1,	-1,	64,	63,	-1,	47,	-1,	62,	-1,	58,	53,	38,	60,	-1,	-1,	48,	25,	-1,	-1,	61|
32,	-1,	47,	-1,	-1,	53,	51,	64,	25,	12,	52,	-1,	-1,	3,	13,	6,	-1,	-1,	46,	-1,	61,	-1,	11,	-1,	-1,	-1,	59,	-1,	50,	36,	-1,	-1,	35,	-1,	-1,	-1,	-1,	26,	-1,	-1,	-1,	-1,	18,	22,	9,	17,	-1,	-1,	23,	31,	-1,	7,	29,	-1,	24,	48,	14,	-1,	-1,	-1,	-1,	-1,	-1,	-1|
52,	-1,	-1,	-1,	-1,	10,	-1,	5,	-1,	-1,	55,	58,	-1,	2,	-1,	-1,	47,	42,	-1,	38,	-1,	-1,	4,	34,	35,	43,	-1,	14,	-1,	-1,	30,	57,	24,	51,	-1,	-1,	-1,	-1,	23,	-1,	50,	-1,	-1,	-1,	-1,	31,	48,	-1,	-1,	-1,	-1,	18,	-1,	25,	-1,	-1,	-1,	-1,	17,	27,	-1,	37,	-1,	44|
-1,	-1,	-1,	13,	-1,	-1,	-1,	-1,	-1,	15,	-1,	-1,	-1,	-1,	64,	27,	-1,	-1,	-1,	32,	-1,	6,	57,	-1,	-1,	3,	-1,	51,	-1,	25,	-1,	-1,	-1,	-1,	-1,	-1,	-1,	-1,	-1,	54,	36,	2,	-1,	43,	29,	-1,	-1,	-1,	-1,	-1,	4,	-1,	17,	-1,	26,	-1,	-1,	-1,	42,	31,	-1,	-1,	-1,	-1|
22,	-1,	45,	-1,	44,	-1,	29,	-1,	-1,	8,	33,	-1,	41,	-1,	-1,	4,	54,	-1,	2,	25,	-1,	-1,	14,	9,	17,	-1,	-1,	-1,	60,	-1,	1,	-1,	-1,	-1,	-1,	58,	-1,	46,	-1,	64,	-1,	-1,	-1,	-1,	12,	40,	19,	-1,	52,	30,	63,	-1,	55,	36,	-1,	-1,	21,	20,	51,	-1,	-1,	-1,	-1,	39|
-1,	-1,	-1,	-1,	-1,	-1,	59,	-1,	-1,	48,	-1,	-1,	-1,	-1,	5,	-1,	-1,	-1,	-1,	30,	-1,	-1,	8,	-1,	-1,	-1,	-1,	-1,	-1,	-1,	47,	-1,	53,	-1,	-1,	-1,	-1,	22,	61,	1,	26,	-1,	-1,	-1,	-1,	-1,	63,	15,	38,	-1,	-1,	17,	-1,	-1,	27,	-1,	6,	-1,	-1,	-1,	-1,	-1,	19,	-1|
5,	-1,	-1,	22,	-1,	-1,	-1,	-1,	30,	-1,	28,	-1,	58,	47,	57,	-1,	-1,	-1,	-1,	-1,	59,	42,	-1,	36,	-1,	-1,	18,	-1,	-1,	-1,	-1,	3,	-1,	16,	-1,	-1,	-1,	62,	-1,	-1,	-1,	-1,	39,	-1,	-1,	19,	-1,	54,	60,	-1,	1,	-1,	-1,	49,	-1,	-1,	-1,	-1,	45,	37,	-1,	-1,	-1,	-1|
8,	27,	-1,	-1,	-1,	58,	-1,	-1,	-1,	-1,	-1,	-1,	-1,	21,	63,	-1,	-1,	48,	22,	34,	-1,	11,	49,	-1,	51,	-1,	38,	-1,	1,	15,	-1,	9,	-1,	28,	-1,	-1,	59,	-1,	13,	45,	-1,	-1,	-1,	-1,	-1,	46,	-1,	-1,	-1,	2,	-1,	23,	-1,	41,	-1,	-1,	-1,	30,	-1,	-1,	-1,	-1,	-1,	35|
-1,	-1,	-1,	-1,	64,	-1,	-1,	-1,	-1,	-1,	-1,	-1,	-1,	-1,	61,	-1,	-1,	63,	-1,	-1,	-1,	56,	-1,	-1,	-1,	-1,	-1,	-1,	45,	39,	-1,	22,	50,	14,	-1,	-1,	38,	43,	58,	-1,	-1,	-1,	40,	52,	-1,	42,	-1,	24,	48,	-1,	8,	-1,	-1,	47,	3,	-1,	18,	-1,	-1,	-1,	-1,	27,	-1,	-1|
-1,	-1,	-1,	-1,	-1,	-1,	-1,	-1,	-1,	33,	27,	-1,	6,	50,	-1,	-1,	-1,	1,	-1,	7,	-1,	39,	-1,	-1,	-1,	56,	41,	-1,	14,	-1,	-1,	31,	-1,	-1,	36,	-1,	-1,	55,	-1,	-1,	35,	25,	-1,	12,	30,	48,	-1,	-1,	28,	-1,	-1,	37,	-1,	16,	61,	-1,	58,	21,	-1,	-1,	-1,	-1,	-1,	17|
3,	-1,	-1,	49,	-1,	19,	-1,	50,	-1,	10,	42,	-1,	25,	-1,	-1,	-1,	-1,	-1,	-1,	-1,	40,	-1,	28,	-1,	-1,	46,	30,	-1,	-1,	-1,	-1,	-1,	27,	29,	-1,	57,	44,	52,	-1,	6,	-1,	-1,	60,	18,	-1,	-1,	1,	59,	-1,	-1,	-1,	-1,	-1,	-1,	56,	-1,	-1,	-1,	47,	-1,	-1,	-1,	14,	48|
-1,	-1,	-1,	-1,	-1,	-1,	-1,	-1,	18,	-1,	-1,	60,	32,	-1,	14,	-1,	61,	-1,	-1,	-1,	-1,	54,	-1,	-1,	52,	-1,	-1,	36,	4,	-1,	-1,	-1,	-1,	11,	21,	3,	-1,	-1,	-1,	-1,	-1,	47,	-1,	-1,	33,	6,	-1,	7,	31,	-1,	43,	59,	40,	-1,	-1,	-1,	-1,	46,	22,	41,	-1,	34,	-1,	10|
28,	-1,	-1,	-1,	41,	32,	-1,	61,	-1,	54,	23,	-1,	40,	-1,	-1,	-1,	60,	16,	27,	-1,	-1,	-1,	-1,	-1,	-1,	57,	-1,	-1,	-1,	-1,	-1,	-1,	10,	-1,	-1,	18,	-1,	-1,	-1,	-1,	-1,	45,	-1,	-1,	-1,	-1,	-1,	-1,	-1,	-1,	-1,	-1,	14,	-1,	-1,	-1,	-1,	9,	12,	44,	-1,	-1,	-1,	-1|
40,	60,	-1,	45,	39,	-1,	19,	-1,	-1,	6,	25,	-1,	-1,	-1,	55,	-1,	-1,	-1,	28,	-1,	-1,	-1,	46,	-1,	-1,	36,	-1,	-1,	-1,	-1,	14,	-1,	16,	35,	-1,	30,	52,	-1,	32,	-1,	-1,	42,	50,	-1,	5,	-1,	-1,	-1,	17,	1,	58,	34,	-1,	-1,	44,	-1,	63,	27,	-1,	10,	4,	-1,	-1,	-1|
6,	46,	-1,	-1,	13,	-1,	-1,	21,	28,	50,	-1,	-1,	-1,	12,	-1,	61,	-1,	-1,	-1,	54,	-1,	-1,	1,	20,	-1,	59,	-1,	58,	-1,	-1,	22,	-1,	37,	42,	45,	-1,	-1,	5,	-1,	47,	19,	4,	57,	-1,	-1,	-1,	-1,	-1,	62,	64,	25,	-1,	43,	-1,	63,	-1,	33,	-1,	-1,	53,	-1,	17,	7,	18|
-1,	-1,	-1,	-1,	-1,	-1,	8,	-1,	63,	-1,	-1,	-1,	2,	-1,	3,	-1,	53,	-1,	-1,	-1,	57,	-1,	45,	5,	37,	-1,	29,	38,	-1,	42,	9,	52,	-1,	-1,	-1,	-1,	27,	-1,	-1,	-1,	-1,	56,	-1,	-1,	-1,	-1,	26,	34,	22,	-1,	55,	13,	39,	-1,	54,	-1,	-1,	-1,	-1,	-1,	59,	-1,	44,	-1|
56,	-1,	-1,	-1,	-1,	-1,	-1,	-1,	32,	-1,	57,	-1,	-1,	-1,	-1,	-1,	-1,	-1,	-1,	18,	6,	-1,	-1,	-1,	40,	35,	-1,	2,	-1,	54,	-1,	-1,	-1,	20,	3,	33,	64,	-1,	-1,	-1,	25,	-1,	29,	-1,	-1,	-1,	62,	-1,	-1,	-1,	41,	-1,	38,	-1,	42,	-1,	47,	-1,	-1,	-1,	14,	61,	22,	-1|
-1,	-1,	-1,	-1,	-1,	29,	-1,	44,	22,	56,	53,	-1,	-1,	-1,	-1,	34,	-1,	-1,	48,	-1,	3,	-1,	-1,	-1,	25,	28,	45,	-1,	-1,	-1,	15,	-1,	-1,	-1,	40,	62,	-1,	11,	55,	9,	41,	-1,	-1,	-1,	20,	-1,	31,	-1,	36,	-1,	-1,	16,	57,	19,	-1,	-1,	-1,	-1,	-1,	-1,	-1,	-1,	-1,	-1|
-1,	-1,	-1,	-1,	-1,	-1,	16,	25,	-1,	5,	39,	-1,	17,	-1,	54,	-1,	-1,	-1,	-1,	-1,	51,	30,	-1,	41,	-1,	-1,	-1,	-1,	44,	-1,	-1,	46,	57,	-1,	-1,	10,	28,	14,	19,	2,	6,	22,	-1,	48,	-1,	-1,	23,	9,	-1,	-1,	-1,	-1,	-1,	-1,	8,	-1,	-1,	-1,	-1,	-1,	-1,	-1,	-1,	-1|
-1,	-1,	26,	37,	11,	23,	-1,	-1,	58,	-1,	-1,	-1,	-1,	-1,	27,	51,	13,	-1,	-1,	-1,	-1,	-1,	22,	-1,	-1,	-1,	6,	-1,	-1,	-1,	-1,	-1,	54,	-1,	-1,	-1,	41,	17,	-1,	50,	1,	-1,	-1,	-1,	35,	-1,	-1,	55,	-1,	-1,	-1,	47,	3,	-1,	-1,	-1,	25,	-1,	2,	-1,	-1,	15,	45,	-1|
-1,	-1,	-1,	24,	-1,	52,	49,	54,	42,	-1,	-1,	33,	-1,	41,	1,	38,	-1,	-1,	-1,	36,	-1,	31,	26,	-1,	-1,	63,	-1,	5,	-1,	56,	-1,	34,	-1,	-1,	59,	44,	-1,	29,	39,	-1,	-1,	30,	-1,	-1,	40,	3,	-1,	-1,	-1,	-1,	-1,	-1,	4,	-1,	-1,	-1,	-1,	-1,	-1,	20,	58,	-1,	37,	28|
-1,	44,	8,	-1,	38,	-1,	-1,	-1,	-1,	31,	10,	-1,	-1,	48,	-1,	-1,	-1,	-1,	23,	-1,	29,	-1,	2,	-1,	-1,	25,	15,	-1,	-1,	-1,	-1,	-1,	59,	-1,	-1,	-1,	-1,	-1,	-1,	-1,	21,	43,	42,	-1,	-1,	7,	51,	17,	41,	55,	-1,	-1,	-1,	-1,	-1,	3,	-1,	14,	-1,	11,	-1,	-1,	-1,	-1|
31,	-1,	-1,	-1,	-1,	-1,	-1,	-1,	-1,	3,	-1,	2,	11,	-1,	-1,	40,	7,	-1,	-1,	-1,	-1,	-1,	-1,	-1,	-1,	34,	20,	54,	57,	28,	-1,	-1,	46,	-1,	-1,	-1,	-1,	-1,	-1,	-1,	-1,	18,	-1,	4,	39,	-1,	-1,	35,	43,	51,	-1,	10,	-1,	17,	-1,	-1,	52,	64,	59,	-1,	41,	-1,	-1,	-1|
41,	-1,	55,	34,	32,	-1,	-1,	24,	-1,	58,	6,	51,	-1,	46,	56,	23,	27,	-1,	-1,	-1,	-1,	5,	-1,	-1,	13,	-1,	43,	-1,	-1,	-1,	4,	14,	52,	-1,	57,	54,	3,	-1,	-1,	-1,	-1,	-1,	-1,	33,	25,	-1,	45,	49,	-1,	21,	-1,	-1,	-1,	-1,	-1,	22,	-1,	-1,	-1,	-1,	-1,	12,	-1,	-1|
-1,	14,	3,	5,	56,	-1,	26,	33,	-1,	-1,	15,	30,	-1,	13,	47,	7,	-1,	54,	-1,	63,	-1,	-1,	44,	-1,	1,	41,	52,	-1,	-1,	-1,	24,	-1,	-1,	60,	20,	-1,	-1,	-1,	-1,	42,	-1,	-1,	-1,	59,	36,	11,	-1,	12,	-1,	46,	-1,	-1,	-1,	-1,	62,	-1,	-1,	-1,	-1,	34,	-1,	4,	-1,	-1|
-1,	52,	20,	23,	-1,	-1,	-1,	-1,	-1,	-1,	38,	-1,	61,	-1,	37,	-1,	-1,	30,	41,	26,	56,	-1,	-1,	-1,	-1,	-1,	3,	-1,	22,	-1,	-1,	-1,	14,	40,	-1,	35,	25,	33,	27,	-1,	-1,	-1,	-1,	9,	-1,	-1,	-1,	-1,	-1,	8,	-1,	-1,	-1,	-1,	29,	-1,	-1,	-1,	-1,	46,	19,	42,	50,	-1|
13,	-1,	-1,	-1,	54,	-1,	-1,	-1,	14,	-1,	21,	-1,	24,	-1,	-1,	-1,	3,	-1,	-1,	-1,	-1,	47,	-1,	-1,	-1,	18,	-1,	17,	53,	-1,	-1,	-1,	-1,	43,	-1,	-1,	50,	-1,	48,	-1,	23,	41,	-1,	32,	38,	27,	5,	-1,	-1,	-1,	60,	-1,	-1,	-1,	34,	12,	-1,	-1,	-1,	-1,	-1,	-1,	29,	2|
-1,	-1,	-1,	-1,	49,	9,	28,	-1,	4,	-1,	-1,	-1,	12,	25,	33,	-1,	-1,	-1,	32,	-1,	-1,	-1,	36,	64,	50,	47,	-1,	-1,	-1,	16,	-1,	-1,	6,	23,	-1,	41,	8,	-1,	24,	11,	-1,	-1,	53,	-1,	-1,	20,	13,	-1,	-1,	-1,	-1,	-1,	-1,	-1,	-1,	-1,	-1,	-1,	-1,	-1,	-1,	62,	63,	-1|
-1,	-1,	-1,	-1,	-1,	35,	-1,	6,	-1,	-1,	-1,	-1,	-1,	43,	34,	60,	-1,	59,	-1,	39,	-1,	24,	-1,	-1,	-1,	-1,	-1,	-1,	31,	9,	-1,	-1,	-1,	-1,	55,	-1,	61,	-1,	-1,	4,	15,	57,	-1,	-1,	-1,	-1,	56,	-1,	-1,	48,	-1,	-1,	-1,	-1,	16,	37,	23,	47,	-1,	-1,	3,	-1,	-1,	-1|
53,	-1,	-1,	-1,	29,	61,	-1,	46,	-1,	38,	54,	-1,	-1,	36,	-1,	63,	-1,	-1,	-1,	-1,	52,	-1,	-1,	-1,	-1,	-1,	-1,	64,	-1,	-1,	-1,	-1,	31,	21,	-1,	-1,	-1,	4,	-1,	-1,	-1,	-1,	-1,	-1,	48,	-1,	-1,	6,	-1,	24,	34,	50,	41,	-1,	23,	-1,	-1,	43,	7,	-1,	-1,	-1,	-1,	-1|
-1,	-1,	39,	-1,	-1,	-1,	24,	-1,	-1,	47,	-1,	-1,	-1,	-1,	-1,	-1,	40,	32,	-1,	-1,	-1,	46,	-1,	63,	29,	-1,	-1,	-1,	-1,	22,	41,	-1,	38,	-1,	-1,	-1,	1,	-1,	-1,	-1,	3,	-1,	-1,	-1,	-1,	-1,	-1,	8,	-1,	-1,	2,	61,	27,	-1,	59,	-1,	15,	50,	37,	-1,	-1,	18,	21,	42|
7,	-1,	-1,	-1,	-1,	-1,	21,	56,	-1,	-1,	-1,	28,	9,	14,	-1,	-1,	26,	57,	5,	-1,	-1,	-1,	31,	-1,	-1,	-1,	4,	-1,	36,	59,	-1,	49,	-1,	-1,	-1,	22,	-1,	19,	-1,	60,	32,	1,	43,	-1,	42,	45,	-1,	-1,	10,	16,	-1,	-1,	35,	-1,	48,	58,	20,	33,	40,	-1,	-1,	-1,	17,	-1|
64,	-1,	-1,	40,	8,	-1,	-1,	-1,	-1,	-1,	7,	-1,	13,	-1,	48,	-1,	-1,	47,	-1,	4,	-1,	-1,	-1,	30,	-1,	-1,	-1,	35,	58,	-1,	-1,	28,	-1,	-1,	-1,	52,	-1,	-1,	-1,	-1,	-1,	-1,	-1,	-1,	-1,	21,	-1,	-1,	-1,	-1,	51,	-1,	-1,	-1,	-1,	-1,	-1,	11,	60,	-1,	1,	-1,	12,	-1|
-1,	-1,	23,	-1,	-1,	-1,	33,	28,	-1,	19,	-1,	-1,	-1,	55,	-1,	-1,	-1,	12,	-1,	-1,	41,	-1,	-1,	62,	-1,	60,	40,	31,	-1,	-1,	-1,	-1,	61,	-1,	-1,	15,	-1,	25,	-1,	-1,	58,	20,	-1,	-1,	-1,	-1,	-1,	57,	63,	-1,	49,	-1,	22,	21,	-1,	46,	44,	35,	5,	-1,	36,	-1,	-1,	-1|
-1,	63,	62,	-1,	36,	41,	-1,	-1,	-1,	16,	-1,	25,	-1,	27,	-1,	-1,	20,	-1,	64,	24,	54,	-1,	39,	-1,	-1,	52,	-1,	3,	43,	-1,	48,	6,	-1,	-1,	-1,	-1,	-1,	-1,	11,	-1,	5,	13,	-1,	61,	-1,	33,	18,	-1,	-1,	-1,	30,	42,	31,	-1,	9,	-1,	22,	-1,	-1,	59,	-1,	-1,	-1,	46|
-1,	-1,	-1,	-1,	1,	6,	-1,	-1,	-1,	-1,	-1,	-1,	-1,	-1,	-1,	49,	-1,	-1,	45,	2,	-1,	38,	-1,	-1,	-1,	-1,	-1,	24,	-1,	17,	44,	-1,	-1,	-1,	-1,	-1,	-1,	12,	-1,	62,	-1,	34,	-1,	-1,	52,	-1,	-1,	19,	-1,	11,	-1,	-1,	-1,	15,	-1,	28,	-1,	-1,	25,	61,	27,	47,	48,	64|
42,	-1,	27,	-1,	-1,	-1,	5,	11,	23,	40,	59,	-1,	-1,	-1,	30,	46,	-1,	29,	-1,	-1,	50,	-1,	18,	25,	61,	-1,	51,	-1,	2,	20,	-1,	13,	-1,	-1,	56,	-1,	58,	10,	-1,	37,	-1,	64,	49,	-1,	-1,	-1,	-1,	47,	-1,	38,	-1,	8,	26,	-1,	-1,	19,	-1,	-1,	24,	45,	6,	-1,	-1,	-1|
14,	64,	9,	46,	12,	-1,	32,	-1,	55,	59,	61,	-1,	-1,	-1,	11,	25,	45,	22,	-1,	-1,	-1,	-1,	54,	-1,	-1,	-1,	28,	-1,	52,	50,	40,	24,	-1,	1,	-1,	-1,	-1,	49,	-1,	-1,	4,	36,	-1,	8,	-1,	-1,	16,	23,	-1,	-1,	42,	58,	-1,	29,	-1,	-1,	-1,	44,	20,	43,	-1,	-1,	-1,	-1|
-1,	-1,	5,	63,	-1,	-1,	-1,	-1,	6,	-1,	-1,	40,	-1,	57,	-1,	-1,	-1,	-1,	-1,	-1,	-1,	59,	27,	-1,	54,	45,	-1,	-1,	-1,	-1,	-1,	-1,	23,	36,	-1,	-1,	62,	-1,	-1,	-1,	24,	-1,	-1,	-1,	-1,	30,	53,	39,	26,	-1,	56,	52,	-1,	48,	41,	-1,	-1,	-1,	-1,	-1,	28,	-1,	46,	-1|
-1,	8,	36,	-1,	57,	24,	-1,	-1,	-1,	37,	19,	-1,	-1,	28,	-1,	52,	-1,	-1,	-1,	-1,	62,	-1,	-1,	11,	64,	9,	-1,	21,	-1,	-1,	-1,	-1,	-1,	39,	54,	-1,	20,	-1,	-1,	-1,	-1,	26,	56,	-1,	-1,	-1,	-1,	-1,	-1,	-1,	38,	-1,	-1,	45,	12,	13,	-1,	-1,	-1,	-1,	29,	-1,	-1,	22|
55,	-1,	-1,	-1,	-1,	56,	-1,	40,	3,	18,	5,	-1,	-1,	-1,	-1,	24,	-1,	19,	-1,	-1,	9,	-1,	-1,	-1,	20,	-1,	49,	62,	13,	53,	-1,	36,	-1,	-1,	-1,	-1,	-1,	8,	63,	-1,	-1,	-1,	1,	6,	17,	-1,	22,	61,	32,	-1,	-1,	-1,	-1,	-1,	-1,	25,	-1,	-1,	23,	-1,	-1,	11,	-1,	-1|
-1,	11,	-1,	15,	47,	-1,	37,	19,	-1,	-1,	-1,	22,	34,	-1,	-1,	56,	-1,	49,	25,	-1,	35,	40,	-1,	7,	-1,	-1,	2,	41,	-1,	-1,	51,	-1,	58,	46,	-1,	-1,	-1,	16,	57,	-1,	48,	55,	64,	20,	-1,	13,	27,	-1,	9,	-1,	53,	1,	-1,	3,	-1,	36,	62,	-1,	-1,	-1,	5,	-1,	39,	59|
-1,	-1,	-1,	44,	18,	-1,	17,	-1,	-1,	7,	-1,	54,	29,	-1,	31,	-1,	57,	-1,	-1,	-1,	47,	-1,	16,	-1,	27,	37,	19,	-1,	15,	-1,	26,	42,	-1,	-1,	9,	-1,	-1,	-1,	12,	24,	43,	-1,	46,	38,	-1,	-1,	41,	-1,	-1,	40,	5,	20,	-1,	-1,	-1,	11,	-1,	-1,	-1,	55,	10,	56,	25,	-1|
-1,	58,	-1,	-1,	4,	39,	-1,	-1,	-1,	-1,	-1,	43,	49,	-1,	60,	32,	-1,	8,	44,	-1,	36,	20,	-1,	-1,	-1,	12,	33,	-1,	-1,	5,	46,	11,	-1,	-1,	-1,	-1,	-1,	61,	-1,	-1,	31,	52,	25,	47,	-1,	15,	-1,	-1,	24,	-1,	-1,	-1,	54,	-1,	21,	62,	-1,	-1,	-1,	3,	-1,	50,	-1,	53|
1,	-1,	-1,	-1,	45,	-1,	-1,	20,	-1,	-1,	-1,	-1,	-1,	42,	12,	-1,	-1,	-1,	-1,	-1,	-1,	63,	-1,	-1,	60,	-1,	16,	-1,	-1,	-1,	-1,	55,	-1,	-1,	15,	-1,	-1,	-1,	59,	-1,	54,	-1,	10,	-1,	-1,	9,	3,	40,	-1,	-1,	-1,	57,	-1,	31,	4,	-1,	24,	61,	-1,	-1,	18,	33,	34,	47|];
