sudoku-ls/benchmarks_LEQ/INST_64x64/40/inst64x64_40_6.txt
8
1
-1	-1	16	-1	-1	-1	2	-1	61	44	-1	-1	-1	-1	-1	-1	31	-1	-1	62	49	-1	-1	-1	46	-1	-1	28	-1	14	23	51	-1	24	1	-1	36	32	-1	48	-1	-1	-1	29	-1	43	15	-1	42	-1	-1	-1	-1	33	-1	-1	-1	25	34	64	-1	-1	47	-1
44	-1	-1	47	23	-1	-1	-1	-1	-1	-1	-1	-1	54	-1	17	11	-1	-1	33	-1	-1	-1	38	-1	-1	-1	-1	-1	-1	-1	-1	-1	18	-1	-1	-1	30	-1	15	8	-1	-1	-1	6	-1	-1	58	-1	-1	48	43	-1	37	49	-1	35	-1	62	12	7	-1	57	-1
-1	1	-1	64	-1	21	34	-1	59	-1	-1	-1	-1	58	-1	-1	-1	2	50	47	-1	25	-1	10	-1	-1	-1	-1	-1	-1	-1	48	-1	26	-1	-1	-1	-1	-1	-1	-1	-1	12	-1	-1	63	-1	-1	-1	22	-1	-1	-1	-1	-1	-1	31	53	-1	-1	44	-1	32	-1
62	61	17	8	-1	7	-1	-1	-1	45	-1	-1	31	-1	-1	-1	-1	-1	59	57	4	-1	-1	12	-1	44	-1	-1	-1	-1	-1	-1	43	-1	-1	-1	54	35	-1	10	-1	33	28	-1	50	24	14	-1	46	63	-1	-1	-1	-1	-1	-1	-1	1	19	-1	22	-1	-1	41
-1	-1	58	48	60	-1	55	36	-1	25	-1	5	38	-1	-1	37	24	3	-1	-1	46	52	-1	54	-1	-1	57	-1	-1	-1	-1	-1	-1	34	8	61	-1	-1	9	44	-1	-1	22	45	-1	41	35	56	-1	-1	-1	-1	47	-1	20	-1	-1	-1	49	-1	-1	43	-1	-1
-1	-1	25	-1	-1	-1	-1	-1	46	-1	-1	18	57	-1	-1	-1	-1	14	-1	35	48	28	-1	-1	9	49	-1	50	10	-1	-1	-1	-1	-1	-1	-1	-1	64	47	16	51	-1	20	1	62	-1	40	60	-1	-1	-1	41	19	38	31	56	-1	55	4	36	11	-1	-1	-1
-1	-1	-1	-1	-1	31	10	29	-1	-1	-1	-1	-1	33	9	-1	39	-1	43	22	-1	-1	-1	-1	-1	-1	7	-1	-1	19	35	-1	-1	13	12	-1	-1	57	-1	-1	27	54	-1	-1	-1	-1	-1	38	-1	59	-1	-1	-1	32	11	-1	-1	-1	21	2	-1	46	51	14
-1	-1	-1	-1	-1	-1	-1	-1	-1	-1	12	-1	-1	35	-1	43	64	51	20	-1	-1	-1	-1	42	15	33	-1	-1	-1	58	38	-1	21	-1	-1	-1	22	-1	-1	-1	47	31	48	-1	-1	-1	-1	3	-1	29	13	5	-1	-1	39	-1	17	-1	26	-1	-1	-1	-1	-1
58	-1	-1	56	-1	-1	-1	-1	-1	-1	-1	-1	59	30	-1	39	-1	-1	-1	53	-1	-1	-1	-1	-1	-1	1	-1	-1	-1	-1	15	19	-1	13	-1	-1	36	52	5	42	-1	-1	-1	-1	61	-1	-1	6	-1	-1	-1	-1	60	-1	64	-1	-1	14	35	38	22	-1	-1
49	-1	22	-1	20	-1	-1	-1	-1	-1	-1	-1	-1	-1	-1	-1	-1	38	12	60	-1	-1	-1	-1	42	-1	63	59	-1	-1	-1	4	-1	-1	18	-1	31	-1	30	8	-1	23	-1	-1	-1	-1	28	-1	-1	-1	54	35	-1	13	17	43	-1	51	-1	57	-1	-1	36	-1
45	33	-1	-1	-1	-1	-1	-1	40	-1	51	-1	20	-1	28	50	-1	-1	-1	-1	-1	-1	-1	-1	-1	-1	-1	-1	-1	-1	64	-1	-1	15	38	-1	43	54	-1	12	60	-1	-1	-1	27	-1	25	36	-1	-1	-1	-1	-1	-1	5	-1	-1	7	-1	-1	46	9	-1	-1
46	55	-1	-1	-1	-1	60	-1	12	-1	-1	-1	-1	-1	6	13	-1	36	-1	-1	-1	1	-1	-1	58	-1	-1	-1	19	-1	-1	-1	3	-1	17	-1	11	44	62	7	-1	-1	-1	-1	47	-1	37	-1	-1	-1	-1	31	-1	-1	52	-1	41	-1	-1	50	42	-1	-1	-1
-1	3	31	-1	-1	-1	-1	14	38	-1	-1	24	18	-1	-1	-1	-1	-1	-1	37	-1	29	-1	56	-1	-1	-1	-1	-1	-1	28	54	49	-1	-1	-1	-1	39	-1	-1	63	16	-1	-1	-1	1	-1	43	-1	50	-1	-1	-1	26	-1	-1	53	12	-1	23	47	-1	-1	-1
-1	38	29	4	62	11	64	-1	-1	-1	36	-1	45	-1	-1	-1	-1	21	7	-1	5	17	-1	27	-1	-1	-1	12	46	-1	-1	30	20	-1	-1	-1	-1	51	22	-1	-1	-1	-1	-1	53	-1	-1	-1	16	-1	10	33	-1	9	55	41	61	-1	52	-1	-1	-1	24	-1
-1	-1	19	54	61	-1	-1	-1	-1	-1	-1	-1	-1	-1	-1	-1	-1	-1	-1	14	15	-1	43	44	-1	-1	50	-1	-1	27	52	-1	1	-1	-1	23	-1	-1	-1	-1	45	-1	41	46	-1	5	-1	-1	-1	-1	-1	-1	28	7	37	-1	30	-1	-1	-1	-1	49	55	33
36	-1	-1	-1	42	-1	15	-1	-1	-1	-1	55	-1	-1	-1	-1	-1	20	49	-1	-1	-1	-1	47	-1	21	-1	-1	6	-1	17	43	-1	-1	-1	-1	-1	34	-1	61	-1	12	35	-1	19	57	-1	22	-1	-1	59	24	63	39	30	-1	29	-1	-1	-1	13	-1	5	-1
59	-1	-1	17	21	40	-1	-1	-1	39	62	-1	60	-1	-1	-1	22	-1	-1	-1	-1	-1	-1	-1	12	23	-1	-1	28	63	54	2	-1	52	-1	-1	30	47	-1	-1	-1	11	-1	-1	-1	-1	49	-1	-1	-1	61	6	-1	10	-1	-1	64	-1	-1	-1	45	-1	43	36
-1	35	-1	60	-1	-1	-1	-1	-1	-1	45	-1	-1	-1	-1	-1	-1	-1	-1	17	-1	-1	12	37	-1	31	26	-1	-1	55	-1	-1	-1	7	-1	25	-1	-1	36	-1	-1	6	-1	-1	24	-1	58	-1	-1	57	-1	40	32	-1	13	-1	-1	38	-1	33	-1	-1	62	-1
33	25	-1	-1	7	62	14	-1	54	42	-1	10	-1	40	-1	-1	36	53	-1	3	31	-1	-1	50	-1	6	-1	-1	64	-1	29	-1	-1	-1	22	1	-1	-1	43	-1	30	-1	15	-1	61	39	-1	52	-1	-1	35	-1	44	28	-1	-1	-1	-1	-1	47	9	-1	-1	-1
-1	-1	-1	-1	6	49	36	18	17	43	-1	46	21	-1	23	9	-1	-1	-1	-1	55	7	10	-1	-1	-1	-1	-1	8	-1	5	-1	2	-1	-1	-1	33	27	28	3	-1	-1	-1	-1	-1	32	64	63	54	-1	-1	-1	-1	-1	53	38	60	15	-1	48	-1	29	35	-1
-1	54	47	-1	-1	53	-1	-1	-1	12	52	57	-1	-1	13	-1	5	-1	-1	-1	-1	49	-1	-1	38	-1	59	15	-1	-1	27	19	-1	-1	-1	-1	16	26	-1	-1	33	-1	-1	-1	-1	-1	-1	-1	-1	-1	-1	-1	29	-1	24	48	-1	-1	-1	40	-1	-1	-1	55
52	-1	-1	-1	-1	10	63	5	-1	36	55	-1	26	2	53	-1	-1	-1	-1	-1	-1	-1	-1	-1	-1	-1	9	-1	-1	33	30	57	24	51	6	-1	-1	-1	-1	39	50	-1	-1	-1	8	-1	-1	-1	-1	45	-1	18	-1	-1	60	1	-1	-1	17	-1	32	-1	3	44
-1	-1	-1	13	-1	-1	-1	-1	-1	15	-1	47	16	-1	-1	-1	-1	41	33	-1	-1	-1	57	40	49	-1	62	51	-1	25	20	39	-1	-1	53	-1	60	-1	14	-1	-1	2	45	-1	29	38	-1	-1	8	-1	4	-1	-1	-1	-1	5	-1	56	-1	31	-1	-1	10	-1
22	-1	-1	-1	-1	-1	29	-1	-1	8	33	-1	-1	-1	24	-1	-1	43	-1	-1	-1	-1	-1	-1	17	11	-1	-1	60	-1	1	-1	-1	-1	-1	58	-1	-1	-1	-1	-1	28	-1	-1	12	-1	-1	-1	-1	-1	63	3	-1	36	15	-1	-1	-1	-1	6	49	26	-1	-1
-1	-1	13	-1	-1	57	59	37	-1	48	49	16	-1	4	5	-1	51	-1	-1	-1	-1	-1	-1	-1	28	-1	-1	-1	54	60	-1	20	-1	-1	-1	-1	-1	-1	-1	-1	-1	-1	-1	31	23	36	63	-1	-1	12	-1	17	-1	-1	-1	-1	-1	-1	-1	29	-1	-1	-1	25
-1	21	-1	22	14	-1	-1	-1	-1	-1	-1	-1	-1	-1	57	29	-1	31	6	-1	59	42	-1	-1	-1	-1	-1	-1	-1	-1	13	3	-1	-1	-1	24	48	-1	4	-1	55	-1	-1	-1	11	19	-1	54	-1	-1	-1	-1	-1	49	-1	-1	-1	52	-1	-1	-1	51	2	-1
8	-1	-1	10	-1	58	6	-1	-1	55	20	-1	-1	-1	-1	3	43	-1	-1	-1	-1	-1	-1	52	-1	32	38	-1	1	-1	-1	9	-1	-1	-1	-1	59	-1	-1	45	57	44	14	-1	56	-1	-1	-1	-1	-1	18	23	25	41	-1	4	-1	30	33	-1	-1	36	26	-1
-1	-1	-1	-1	-1	-1	4	-1	62	26	-1	-1	-1	9	-1	59	-1	63	-1	19	44	-1	-1	23	-1	29	-1	-1	-1	39	-1	-1	50	-1	35	-1	-1	-1	-1	32	16	-1	-1	-1	-1	42	-1	-1	48	-1	-1	-1	46	47	-1	-1	-1	-1	-1	-1	-1	27	28	57
-1	23	60	-1	-1	-1	-1	47	34	-1	-1	-1	6	50	-1	64	2	-1	-1	-1	24	-1	-1	57	-1	-1	-1	-1	14	43	-1	31	9	54	-1	-1	19	55	49	-1	35	-1	-1	12	30	48	-1	4	-1	-1	-1	-1	-1	-1	-1	-1	-1	-1	-1	-1	20	-1	-1	-1
3	-1	-1	-1	33	-1	-1	-1	36	-1	-1	-1	25	-1	17	2	9	64	-1	-1	40	-1	-1	4	-1	46	-1	8	-1	-1	11	-1	-1	-1	-1	57	-1	-1	31	6	22	-1	60	-1	-1	62	1	-1	-1	13	32	21	-1	54	56	24	16	63	47	38	-1	-1	14	48
-1	-1	63	62	48	44	-1	-1	18	-1	-1	60	-1	-1	14	-1	-1	-1	-1	13	-1	-1	-1	-1	52	-1	64	-1	-1	-1	-1	58	-1	-1	21	-1	-1	42	-1	-1	-1	47	-1	28	33	-1	9	7	31	39	-1	-1	-1	-1	-1	55	-1	-1	-1	-1	24	-1	49	-1
-1	42	38	39	41	-1	31	-1	43	54	-1	-1	-1	-1	22	-1	-1	16	27	-1	-1	-1	47	-1	62	57	48	7	-1	-1	-1	25	-1	-1	-1	-1	-1	-1	26	-1	64	-1	-1	-1	51	34	-1	-1	35	-1	-1	-1	-1	-1	-1	6	-1	-1	-1	-1	-1	59	-1	-1
-1	-1	61	45	-1	22	-1	31	-1	-1	-1	-1	-1	-1	55	26	-1	-1	28	-1	-1	37	-1	2	-1	-1	11	20	-1	-1	-1	-1	16	-1	23	-1	52	53	-1	38	-1	42	-1	-1	-1	54	33	51	-1	1	-1	-1	-1	12	44	59	63	-1	-1	-1	-1	-1	41	-1
6	46	-1	-1	-1	51	38	-1	-1	50	14	-1	-1	-1	-1	61	52	-1	55	-1	-1	-1	-1	20	-1	59	32	-1	-1	-1	-1	27	37	-1	-1	-1	26	-1	-1	47	19	-1	57	-1	-1	-1	-1	11	62	64	-1	2	-1	23	-1	-1	-1	-1	-1	53	-1	-1	7	-1
-1	10	-1	-1	-1	-1	8	-1	-1	-1	47	23	-1	19	-1	31	-1	40	11	-1	-1	33	45	-1	-1	-1	-1	-1	41	42	9	52	51	-1	60	-1	27	-1	-1	-1	-1	56	36	7	15	-1	-1	-1	22	-1	55	13	-1	-1	-1	-1	50	-1	64	-1	59	6	44	12
-1	-1	7	-1	-1	-1	1	-1	32	-1	57	9	46	60	-1	8	63	-1	34	-1	-1	-1	-1	-1	40	-1	17	-1	51	54	-1	16	-1	20	-1	-1	-1	-1	15	13	-1	-1	-1	53	-1	12	62	44	-1	-1	-1	-1	-1	-1	-1	-1	-1	-1	31	-1	-1	-1	22	11
-1	-1	35	-1	-1	-1	-1	-1	-1	-1	53	13	10	37	-1	34	14	-1	48	59	-1	64	-1	-1	-1	-1	-1	43	-1	1	-1	-1	-1	6	40	-1	-1	11	-1	9	41	-1	61	-1	20	47	-1	32	-1	-1	26	-1	57	-1	-1	-1	-1	23	-1	-1	54	5	-1	38
-1	-1	-1	-1	63	47	-1	25	-1	-1	-1	-1	-1	-1	54	21	-1	24	-1	-1	-1	30	38	41	-1	53	13	-1	-1	3	12	-1	57	-1	58	-1	28	14	19	-1	-1	22	59	48	-1	-1	-1	-1	-1	33	-1	27	50	-1	8	60	-1	-1	56	-1	34	-1	-1	-1
-1	-1	26	-1	-1	23	-1	42	-1	29	16	-1	-1	-1	-1	-1	-1	-1	-1	56	-1	12	22	43	57	62	-1	-1	-1	61	60	18	-1	49	-1	-1	41	-1	-1	50	-1	63	38	-1	-1	52	46	55	-1	-1	-1	-1	-1	-1	-1	31	-1	-1	2	-1	-1	-1	-1	-1
-1	57	-1	24	-1	52	-1	-1	42	35	-1	-1	-1	-1	1	38	-1	-1	47	-1	21	-1	26	19	-1	-1	-1	-1	-1	56	8	-1	7	-1	59	-1	-1	-1	39	18	17	-1	2	-1	-1	-1	43	14	11	-1	-1	9	-1	-1	46	-1	-1	-1	-1	-1	58	-1	-1	-1
-1	-1	-1	-1	-1	64	-1	-1	35	-1	-1	-1	-1	-1	18	-1	-1	60	-1	49	29	-1	2	-1	5	25	-1	61	26	-1	-1	33	59	-1	-1	-1	56	-1	1	-1	21	43	42	-1	28	-1	51	-1	-1	-1	-1	-1	-1	-1	-1	3	27	14	16	11	40	45	9	-1
-1	-1	-1	29	25	16	-1	-1	27	-1	1	-1	-1	-1	-1	40	7	61	19	-1	-1	55	-1	8	6	-1	-1	-1	57	-1	62	-1	46	-1	32	-1	47	-1	-1	-1	-1	-1	-1	-1	-1	-1	60	-1	43	-1	-1	-1	-1	-1	58	63	52	-1	-1	-1	-1	-1	-1	49
41	50	-1	34	-1	-1	47	-1	-1	-1	-1	-1	-1	46	56	-1	27	-1	-1	-1	16	-1	-1	-1	13	10	-1	42	-1	40	-1	14	52	37	-1	54	3	-1	-1	29	61	-1	-1	33	-1	44	-1	49	7	21	11	-1	18	-1	-1	22	-1	-1	-1	-1	-1	12	60	-1
43	14	3	-1	56	-1	-1	-1	16	9	-1	-1	22	-1	47	-1	17	54	57	63	-1	-1	-1	-1	-1	-1	-1	-1	-1	-1	-1	32	-1	-1	20	-1	-1	-1	-1	-1	37	-1	-1	59	-1	11	-1	-1	27	-1	40	25	2	-1	-1	-1	-1	-1	61	-1	-1	4	-1	51
-1	-1	-1	23	-1	-1	7	63	49	-1	38	53	-1	-1	-1	57	-1	30	-1	-1	56	-1	-1	28	44	51	-1	48	22	-1	45	-1	14	40	-1	-1	25	33	-1	36	-1	-1	6	-1	1	-1	-1	16	-1	-1	-1	15	5	4	-1	-1	43	-1	55	-1	19	42	-1	-1
-1	-1	-1	-1	54	1	45	-1	-1	62	-1	-1	-1	64	-1	55	-1	6	-1	-1	-1	-1	40	-1	63	-1	39	17	53	46	56	-1	-1	-1	51	-1	-1	-1	48	-1	23	-1	52	-1	-1	-1	5	26	33	-1	-1	19	49	-1	-1	-1	37	-1	44	7	-1	25	-1	-1
-1	-1	37	27	-1	-1	-1	-1	4	-1	-1	29	-1	-1	33	44	10	46	32	51	-1	-1	-1	-1	-1	-1	-1	-1	-1	16	-1	38	-1	-1	-1	-1	8	-1	24	-1	-1	-1	-1	-1	-1	-1	-1	31	-1	-1	57	56	-1	-1	-1	45	-1	-1	-1	-1	-1	62	-1	-1
-1	-1	-1	-1	-1	-1	62	6	45	-1	8	-1	63	43	-1	60	25	59	52	-1	-1	-1	50	-1	-1	2	36	-1	-1	-1	-1	-1	5	-1	-1	-1	61	7	-1	-1	15	57	-1	54	-1	-1	-1	-1	30	48	-1	-1	13	-1	16	-1	23	47	-1	-1	3	-1	-1	-1
-1	-1	-1	25	-1	-1	-1	46	8	38	54	-1	-1	36	35	-1	-1	17	-1	10	-1	-1	60	16	47	-1	42	-1	-1	-1	-1	-1	-1	-1	-1	-1	57	4	20	51	-1	15	37	-1	48	22	-1	6	55	24	-1	50	-1	18	-1	40	26	43	-1	58	-1	30	56	-1
-1	-1	39	30	-1	-1	-1	-1	-1	47	-1	-1	51	-1	58	-1	-1	-1	36	11	-1	-1	-1	-1	29	-1	25	23	-1	22	-1	-1	-1	33	-1	45	-1	-1	54	-1	3	-1	44	-1	-1	-1	-1	-1	13	-1	2	61	-1	5	-1	7	-1	-1	37	4	62	18	-1	-1
-1	47	-1	-1	37	12	-1	-1	15	-1	-1	-1	9	14	44	-1	-1	57	5	-1	-1	-1	31	-1	-1	-1	-1	-1	-1	-1	18	-1	-1	64	63	-1	-1	19	-1	-1	32	1	43	-1	-1	-1	-1	-1	-1	-1	-1	-1	-1	-1	-1	58	-1	33	40	-1	51	-1	-1	-1
-1	15	-1	-1	-1	-1	-1	-1	26	-1	-1	6	-1	-1	48	-1	-1	47	-1	-1	22	-1	42	30	16	-1	55	35	-1	-1	34	28	18	-1	-1	52	2	24	-1	59	62	27	-1	-1	41	-1	-1	-1	-1	-1	51	-1	-1	-1	25	-1	-1	-1	-1	63	-1	-1	-1	31
26	-1	23	-1	10	3	-1	-1	52	-1	-1	32	-1	55	-1	11	6	12	-1	-1	41	-1	-1	62	45	60	40	-1	38	-1	-1	1	-1	-1	-1	-1	-1	-1	-1	27	58	-1	-1	24	-1	-1	30	57	63	-1	-1	64	22	-1	-1	-1	-1	35	5	-1	-1	-1	-1	13
-1	-1	62	-1	36	41	-1	34	2	16	50	-1	-1	-1	-1	12	-1	28	64	-1	-1	-1	-1	15	-1	-1	56	-1	43	-1	48	-1	44	47	49	7	-1	-1	-1	14	-1	-1	-1	-1	-1	-1	-1	-1	-1	-1	-1	42	-1	1	-1	17	-1	57	-1	-1	55	19	-1	-1
50	31	51	16	-1	-1	-1	-1	-1	-1	-1	21	-1	-1	-1	-1	-1	-1	-1	2	7	-1	35	59	14	-1	46	-1	-1	-1	-1	5	26	30	-1	-1	-1	12	42	62	56	34	-1	40	-1	-1	39	19	29	-1	-1	36	-1	-1	-1	-1	-1	10	25	61	27	47	48	-1
42	-1	-1	-1	52	-1	5	-1	23	40	-1	-1	-1	22	-1	46	-1	29	1	-1	-1	44	-1	-1	-1	15	-1	-1	-1	-1	-1	-1	-1	-1	56	36	58	-1	35	-1	7	-1	-1	-1	-1	60	17	47	-1	38	12	-1	-1	-1	43	-1	28	-1	-1	-1	6	32	53	-1
-1	-1	9	-1	-1	-1	32	-1	55	59	-1	-1	-1	-1	11	25	-1	22	39	-1	-1	3	-1	-1	34	38	-1	57	52	50	40	-1	60	-1	41	13	53	-1	17	-1	-1	-1	62	-1	63	37	16	-1	-1	18	-1	58	-1	-1	10	-1	-1	-1	-1	-1	-1	-1	-1	-1
-1	29	-1	63	3	-1	-1	-1	-1	20	-1	-1	-1	57	-1	-1	-1	-1	4	-1	10	-1	-1	-1	-1	45	-1	-1	25	47	-1	35	-1	-1	-1	21	62	-1	44	-1	-1	-1	-1	-1	60	-1	53	39	26	17	-1	52	-1	-1	-1	33	-1	8	32	-1	28	-1	-1	9
-1	-1	-1	-1	-1	-1	25	-1	48	37	19	-1	-1	28	10	52	-1	18	-1	-1	62	-1	34	-1	64	-1	14	21	-1	6	-1	63	-1	39	-1	47	-1	40	5	-1	59	-1	56	-1	7	-1	-1	33	-1	-1	38	51	60	-1	12	13	-1	41	58	15	-1	-1	16	-1
55	-1	-1	-1	-1	56	-1	40	-1	-1	-1	-1	-1	-1	26	-1	-1	19	-1	-1	9	-1	-1	-1	20	-1	49	62	-1	53	-1	-1	33	10	-1	38	-1	-1	63	-1	12	-1	-1	6	-1	-1	22	61	32	-1	-1	44	-1	-1	35	25	-1	2	-1	54	-1	-1	64	45
54	11	-1	-1	-1	-1	37	19	-1	-1	30	22	-1	-1	38	56	-1	-1	25	50	-1	-1	24	7	4	-1	-1	41	17	-1	51	-1	-1	-1	26	31	-1	-1	-1	43	-1	55	64	20	-1	-1	27	18	9	-1	-1	-1	8	3	-1	36	62	-1	-1	-1	5	-1	-1	59
-1	28	21	-1	-1	-1	17	-1	39	-1	-1	-1	-1	-1	-1	36	57	-1	53	-1	-1	-1	-1	61	-1	-1	19	-1	-1	8	-1	-1	-1	-1	-1	4	32	-1	12	-1	43	14	46	38	-1	-1	41	45	-1	40	-1	20	59	-1	-1	-1	-1	-1	35	-1	10	-1	25	6
27	-1	-1	-1	4	-1	41	16	9	-1	-1	43	49	-1	60	-1	1	-1	44	-1	-1	20	56	-1	-1	-1	33	-1	-1	-1	-1	11	-1	-1	-1	-1	-1	61	6	-1	-1	52	25	-1	-1	-1	-1	28	-1	-1	-1	22	54	-1	21	62	7	-1	38	-1	-1	-1	-1	53
-1	62	52	-1	45	38	-1	20	13	-1	-1	-1	-1	42	-1	-1	-1	37	-1	-1	-1	-1	48	32	-1	-1	16	-1	-1	44	58	-1	-1	-1	-1	-1	-1	50	-1	28	-1	-1	-1	-1	-1	9	-1	40	-1	-1	-1	-1	6	-1	-1	27	24	-1	-1	30	-1	33	-1	-1
64 
5 9 21 63
61 27 53 45
33 62 35 15
51 27 15 11
63 30 33 45
21 16 28 28
29 20 44 16
57 44 1 12
13 1 55 57
9 18 12 31
18 12 38 14
52 63 61 17
6 10 51 21
8 3 28 34
63 46 55 54
29 54 38 7
47 10 7 32
24 21 60 10
41 36 39 28
1 26 31 41
4 17 54 25
48 60 27 19
30 62 61 10
34 29 63 49
31 23 56 24
56 53 38 28
24 6 50 53
60 20 47 7
4 23 64 17
26 9 51 26
15 25 64 54
17 15 6 42
25 24 56 17
17 41 12 49
61 21 44 29
21 30 2 44
11 30 35 25
24 34 1 62
5 41 53 15
61 22 52 4
24 13 60 17
48 12 50 64
35 36 36 6
7 47 26 12
6 33 42 34
35 39 18 41
18 43 64 64
18 16 19 38
47 5 58 60
51 48 7 39
58 1 20 19
18 18 3 30
6 49 11 52
34 20 57 23
37 39 62 60
42 60 52 17
31 54 35 21
45 64 32 21
56 11 8 6
16 9 60 19
22 29 46 4
22 22 43 19
61 59 40 26
48 46 18 54
